NAME : mtspf.pid19646.gtsp.322122739.tour
COMMENT : Length = 322122739
COMMENT : Found by LKH [Keld Helsgaun] Sun Jan  5 00:12:26 2025
TYPE : TOUR
DIMENSION : 180
TOUR_SECTION
1
2
109
110
111
112
158
159
160
157
4
40
37
38
39
131
132
129
130
104
101
102
103
177
178
179
180
66
67
68
65
6
7
79
80
77
78
122
123
124
121
172
169
170
171
9
10
72
69
70
71
3
126
127
128
125
11
32
29
30
31
100
97
98
99
15
16
134
135
136
133
41
42
43
44
34
35
36
33
139
140
137
138
24
21
22
23
12
13
14
149
150
151
152
8
52
49
50
51
59
60
57
58
19
20
107
108
105
106
162
163
164
161
5
155
156
153
154
141
142
143
144
91
92
89
90
96
93
94
95
62
63
64
61
88
85
86
87
73
74
75
76
117
118
119
120
17
114
115
116
113
54
55
56
53
25
26
27
28
18
173
174
175
176
165
166
167
168
148
145
146
147
84
81
82
83
45
46
47
48
-1
EOF
